
Gurobi 13.0.2 (win64) logging started Fri Jul 24 04:45:29 2026

Set parameter LogFile to value "E:\codes\ExactEBRP\results\gf_c0_mechanism_transfer_c5_round30\development\V12_M1__c4_candidate__60s\external\native_logs\L2.0.0.1.0.1.1.0.0_terminal_mip.gurobi.log"
Gurobi Optimizer version 13.0.2 build v13.0.2rc1 (win64 - Windows 10.0 (19045.2))

CPU model: 12th Gen Intel(R) Core(TM) i7-12700KF, instruction set [SSE2|AVX|AVX2]
Thread count: 12 physical cores, 20 logical processors, using up to 1 threads

Non-default parameters:
TimeLimit  10.8470485
MIPGap  0
MIPGapAbs  0
LogToConsole  0
Threads  1

Optimize a model with 6225 rows, 648 columns and 59365 nonzeros (Min)
Model fingerprint: 0x7b159856
Model has 13 linear objective coefficients
Variable types: 347 continuous, 301 integer (253 binary)
Coefficient statistics:
  Matrix range     [2e-03, 1e+05]
  Objective range  [2e-03, 1e+00]
  Bounds range     [1e-01, 8e+01]
  RHS range        [3e-02, 1e+06]

Presolve removed 742 rows and 27 columns
Presolve time: 0.13s
Presolved: 5483 rows, 621 columns, 58745 nonzeros
Variable types: 321 continuous, 300 integer (252 binary)

Root relaxation: objective 3.224011e-01, 871 iterations, 0.05 seconds (0.16 work units)

    Nodes    |    Current Node    |     Objective Bounds      |     Work
 Expl Unexpl |  Obj  Depth IntInf | Incumbent    BestBd   Gap | It/Node Time

     0     0    0.32240    0  113          -    0.32240      -     -    0s
     0     0    0.32752    0   95          -    0.32752      -     -    0s
     0     0    0.32875    0   88          -    0.32875      -     -    0s
     0     0    0.34158    0   87          -    0.34158      -     -    0s
     0     0    0.34304    0  114          -    0.34304      -     -    0s
     0     0 infeasible    0               - infeasible      -     -    1s

Cutting planes:
  Learned: 1
  Gomory: 3
  Cover: 22
  Implied bound: 48
  Clique: 26
  MIR: 109
  StrongCG: 6
  Flow cover: 59
  Zero half: 4
  Network: 3
  RLT: 15
  Relax-and-lift: 11
  BQP: 3
  PSD: 2

Explored 1 nodes (1598 simplex iterations) in 1.11 seconds (1.33 work units)
Thread count was 1 (of 20 available processors)

Solution count 0

Model is infeasible
Best objective -, best bound -, gap -

User-callback calls 1019, time in user-callback 0.00 sec
